Problem:    soluzione
Rows:       11
Columns:    48 (48 integer, 48 binary)
Non-zeros:  144
Status:     INTEGER OPTIMAL
Objective:  z = 76 (MINimum)

   No.   Row name        Activity     Lower bound   Upper bound
------ ------------    ------------- ------------- -------------
     1 JobSingolaMacchina[1]
                                   1             1             = 
     2 JobSingolaMacchina[2]
                                   1             1             = 
     3 JobSingolaMacchina[3]
                                   1             1             = 
     4 JobSingolaMacchina[4]
                                   1             1             = 
     5 JobSingolaMacchina[5]
                                   1             1             = 
     6 JobSingolaMacchina[6]
                                   1             1             = 
     7 MassimaCapacitaMacchina[1]
                                  19                          20 
     8 MassimaCapacitaMacchina[2]
                                  12                          20 
     9 MassimaCapacitaMacchina[3]
                                  20                          20 
    10 MassimaCapacitaMacchina[4]
                                  16                          20 
    11 z                          76                             

   No. Column name       Activity     Lower bound   Upper bound
------ ------------    ------------- ------------- -------------
     1 Allocazione[1,1,1]
                    *              0             0             1 
     2 Allocazione[1,1,2]
                    *              0             0             1 
     3 Allocazione[1,2,1]
                    *              0             0             1 
     4 Allocazione[1,2,2]
                    *              0             0             1 
     5 Allocazione[1,3,1]
                    *              0             0             1 
     6 Allocazione[1,3,2]
                    *              1             0             1 
     7 Allocazione[1,4,1]
                    *              0             0             1 
     8 Allocazione[1,4,2]
                    *              0             0             1 
     9 Allocazione[2,1,1]
                    *              0             0             1 
    10 Allocazione[2,1,2]
                    *              1             0             1 
    11 Allocazione[2,2,1]
                    *              0             0             1 
    12 Allocazione[2,2,2]
                    *              0             0             1 
    13 Allocazione[2,3,1]
                    *              0             0             1 
    14 Allocazione[2,3,2]
                    *              0             0             1 
    15 Allocazione[2,4,1]
                    *              0             0             1 
    16 Allocazione[2,4,2]
                    *              0             0             1 
    17 Allocazione[3,1,1]
                    *              0             0             1 
    18 Allocazione[3,1,2]
                    *              0             0             1 
    19 Allocazione[3,2,1]
                    *              0             0             1 
    20 Allocazione[3,2,2]
                    *              1             0             1 
    21 Allocazione[3,3,1]
                    *              0             0             1 
    22 Allocazione[3,3,2]
                    *              0             0             1 
    23 Allocazione[3,4,1]
                    *              0             0             1 
    24 Allocazione[3,4,2]
                    *              0             0             1 
    25 Allocazione[4,1,1]
                    *              0             0             1 
    26 Allocazione[4,1,2]
                    *              0             0             1 
    27 Allocazione[4,2,1]
                    *              0             0             1 
    28 Allocazione[4,2,2]
                    *              0             0             1 
    29 Allocazione[4,3,1]
                    *              0             0             1 
    30 Allocazione[4,3,2]
                    *              0             0             1 
    31 Allocazione[4,4,1]
                    *              0             0             1 
    32 Allocazione[4,4,2]
                    *              1             0             1 
    33 Allocazione[5,1,1]
                    *              0             0             1 
    34 Allocazione[5,1,2]
                    *              0             0             1 
    35 Allocazione[5,2,1]
                    *              0             0             1 
    36 Allocazione[5,2,2]
                    *              0             0             1 
    37 Allocazione[5,3,1]
                    *              0             0             1 
    38 Allocazione[5,3,2]
                    *              1             0             1 
    39 Allocazione[5,4,1]
                    *              0             0             1 
    40 Allocazione[5,4,2]
                    *              0             0             1 
    41 Allocazione[6,1,1]
                    *              1             0             1 
    42 Allocazione[6,1,2]
                    *              0             0             1 
    43 Allocazione[6,2,1]
                    *              0             0             1 
    44 Allocazione[6,2,2]
                    *              0             0             1 
    45 Allocazione[6,3,1]
                    *              0             0             1 
    46 Allocazione[6,3,2]
                    *              0             0             1 
    47 Allocazione[6,4,1]
                    *              0             0             1 
    48 Allocazione[6,4,2]
                    *              0             0             1 

Integer feasibility conditions:

KKT.PE: max.abs.err = 0.00e+000 on row 0
        max.rel.err = 0.00e+000 on row 0
        High quality

KKT.PB: max.abs.err = 0.00e+000 on row 0
        max.rel.err = 0.00e+000 on row 0
        High quality

End of output
